
-3.92
-3.76
-3.64
-3.56
-3.44
-3.4
-3.4
-3.32
-3.28
-3.24
-3.2
-3.16
-3.04
-3.0
-3.0
-3.0
-2.96
-2.92
-2.92
-2.88
-0.08
-0.08
-0.08
-0.08
-0.08
-0.08
-0.08
-0.08
-0.08
-0.08
-0.08
-0.08
-0.08
-0.08
-0.08
-0.08
-0.08
-0.08